NAME : LPS-n14-m165
COMMENT : (Lartu-Peter-Santi Plot, instance 4565 out of 39200. 14 customers.)
TYPE : CVRP
DIMENSION : 14
EDGE_WEIGHT_TYPE : EUC_2D
CAPACITY : 96
NODE_COORD_SECTION
 1 38 75
 2 14 76
 3 93 47
 4 65 29
 5 31 97
 6 37 40
 7 12 39
 8 73 78
 9 97 59
 10 15 51
 11 24 38
 12 53 34
 13 55 87
 14 40 33
DEMAND_SECTION
1 0
2 89
3 90
4 24
5 12
6 26
7 68
8 6
9 94
10 52
11 10
12 9
13 70
14 23
DEPOT_SECTION
 1
 -1
EOF
